; --full-saturate-quant --inst-when=full-last-call --inst-no-entail --term-db-mode=relevant --random-seed=1 --lang=smt2 --tlimit 592
;(set-option :produce-unsat-cores true)
(set-logic ALL_SUPPORTED)
(declare-sort A$ 0)
(declare-sort A_set$ 0)
(declare-sort A_llist_bool_fun$ 0)
(declare-codatatypes () ((A_llist$ (lNil$) (lCons$ (lhd$ A$) (ltl$ A_llist$)))))
(declare-datatypes () ((A_list$ (nil$) (cons$ (hd$ A$) (tl$ A_list$)))))
(declare-fun x$ (A_llist$) Bool)
(declare-fun xs$ () A_llist$)
(declare-fun lset$ (A_llist$) A_set$)
(declare-fun lnull$ (A_llist$) Bool)
(declare-fun member$ (A$ A_set$) Bool)
(declare-fun fun_app$ (A_llist_bool_fun$ A_llist$) Bool)
(declare-fun distinct$ (A_list$) Bool)
(declare-fun llist_of$ (A_list$) A_llist$)
(declare-fun ldistinct$ (A_llist$) Bool)
(declare-fun lstrict_prefix$ (A_llist$) A_llist_bool_fun$)
(assert (! (not (ldistinct$ xs$)) :named a0))
(assert (! (x$ xs$) :named a1))
(assert (! (= (ldistinct$ lNil$) true) :named a2))
(assert (! (ldistinct$ lNil$) :named a3))
(assert (! (forall ((?v0 A_list$)) (= (ldistinct$ (llist_of$ ?v0)) (distinct$ ?v0))) :named a4))
(assert (! (forall ((?v0 A_llist$)) (=> (and (x$ ?v0) (not (lnull$ ?v0))) (and (not (member$ (lhd$ ?v0) (lset$ (ltl$ ?v0)))) (or (x$ (ltl$ ?v0)) (ldistinct$ (ltl$ ?v0)))))) :named a5))
(assert (! (forall ((?v0 A$) (?v1 A_llist$)) (! (= (ldistinct$ (lCons$ ?v0 ?v1)) (and (not (member$ ?v0 (lset$ ?v1))) (ldistinct$ ?v1))) :pattern ((lCons$ ?v0 ?v1)))) :named a6))
(assert (! (forall ((?v0 A$) (?v1 A_llist$)) (=> (and (not (member$ ?v0 (lset$ ?v1))) (ldistinct$ ?v1)) (ldistinct$ (lCons$ ?v0 ?v1)))) :named a7))
(assert (! (forall ((?v0 A_llist_bool_fun$) (?v1 A_llist$)) (=> (forall ((?v2 A_llist$)) (=> (forall ((?v3 A_llist$)) (=> (fun_app$ (lstrict_prefix$ ?v3) ?v2) (fun_app$ ?v0 ?v3))) (fun_app$ ?v0 ?v2))) (fun_app$ ?v0 ?v1))) :named a8))
(assert (! (forall ((?v0 A$) (?v1 A_llist$) (?v2 A$) (?v3 A_llist$)) (= (= (lCons$ ?v0 ?v1) (lCons$ ?v2 ?v3)) (and (= ?v0 ?v2) (= ?v1 ?v3)))) :named a9))
(assert (! (forall ((?v0 A_list$) (?v1 A_list$)) (= (= (llist_of$ ?v0) (llist_of$ ?v1)) (= ?v0 ?v1))) :named a10))
(assert (! (forall ((?v0 A$) (?v1 A_llist$) (?v2 A$) (?v3 A_llist$)) (! (= (fun_app$ (lstrict_prefix$ (lCons$ ?v0 ?v1)) (lCons$ ?v2 ?v3)) (and (= ?v0 ?v2) (fun_app$ (lstrict_prefix$ ?v1) ?v3))) :pattern ((fun_app$ (lstrict_prefix$ (lCons$ ?v0 ?v1)) (lCons$ ?v2 ?v3))))) :named a11))
(assert (! (= (fun_app$ (lstrict_prefix$ lNil$) lNil$) false) :named a12))
(assert (! (forall ((?v0 A$) (?v1 A_llist$)) (! (= (fun_app$ (lstrict_prefix$ lNil$) (lCons$ ?v0 ?v1)) true) :pattern ((lCons$ ?v0 ?v1)))) :named a13))
(assert (! (forall ((?v0 A$) (?v1 A_llist$)) (! (= (fun_app$ (lstrict_prefix$ (lCons$ ?v0 ?v1)) lNil$) false) :pattern ((lCons$ ?v0 ?v1)))) :named a14))
(assert (! (forall ((?v0 A_llist$)) (=> (not (lnull$ ?v0)) (= (lCons$ (lhd$ ?v0) (ltl$ ?v0)) ?v0))) :named a15))
(assert (! (forall ((?v0 A_llist$)) (= (not (= ?v0 lNil$)) (exists ((?v1 A$) (?v2 A_llist$)) (= ?v0 (lCons$ ?v1 ?v2))))) :named a16))
(assert (! (forall ((?v0 A_llist$)) (= (not (lnull$ ?v0)) (exists ((?v1 A$) (?v2 A_llist$)) (= ?v0 (lCons$ ?v1 ?v2))))) :named a17))
(check-sat)
;(get-unsat-core)
